p tw 28 42
1 15
1 19
1 26
2 11
2 12
2 25
3 5
3 17
3 27
4 6
4 7
4 12
5 19
5 24
6 14
6 20
7 17
7 24
8 13
8 18
8 25
9 15
9 20
9 28
10 13
10 19
10 22
11 16
11 22
12 27
13 14
14 28
15 18
16 21
16 23
17 27
18 21
20 22
21 25
23 24
23 26
26 28
